&control
    calculation      = 'scf'
    prefix           = 'fese_soliddmft'
    restart_mode     = 'from_scratch'
    wf_collect       = .false.
    pseudo_dir       = '/home/users/dulanlin/Psuop/Pslib1.0-pbe-rrkjus',
    outdir           = 'QE_tmp/'
    tstress          = .true.
    tprnfor          = .true.
    verbosity = "high"
 /
 &system
    ibrav            = 0
    nat              = 4
    ntyp             = 2
    ecutwfc          = 100
    ecutrho          = 1000
    occupations      = 'smearing'
    smearing         = 'gauss'
    degauss          = 0.001
 /
 &electrons
    mixing_mode = 'plain'
    mixing_beta = 0.7
    conv_thr =  1.0d-10
    diagonalization = 'cg'
 /
ATOMIC_SPECIES
Fe 55.85 Fe.UPF
Se 78.96 Se.UPF
CELL_PARAMETERS {angstrom}
        3.7650000000         0.0000000000         0.0000000000
        0.0000000000         3.7650000000         0.0000000000
        0.0000000000         0.0000000000         20.000000000

ATOMIC_POSITIONS (crystal)
Fe     0.500000000         0.500000000         0.073196270
Fe     0.000000000         0.000000000         0.073196270
Se     0.500000000         0.000000000         0.146392540
Se     0.000000000         0.500000000         0.000000000

K_POINTS {automatic}
12 12 1 0 0 0
