&control
    calculation      = 'scf'
    prefix           = 'fese_soliddmft'
    restart_mode     = 'restart'
    wf_collect       = .false.
    pseudo_dir       = '/home/users/dulanlin/Psuop/Pslib1.0-pbe-rrkjus',
    outdir           = 'QE_tmp/'
    tstress          = .true.
    tprnfor          = .true.
!    verbosity        = 'high'
 /
 &system
    ibrav            = 0
    nat              = 4
    ntyp             = 2
    ecutwfc          = 100
    ecutrho          = 1000
    occupations      = 'smearing'
    smearing         = 'gauss'
    degauss          = 0.001
    nbnd             = 50
    dmft             = .true.
    dmft_prefix      = 'fese',
    nosym            = .true.
 /
 &electrons
    electron_maxstep = 1
    conv_thr         = 1.0d-8
    mixing_beta      = 0.3
    mixing_mode      = 'local-TF'
    startingpot      = 'file'
    startingwfc      = 'file'
 /
ATOMIC_SPECIES
Fe 55.85 Fe.UPF
Se 78.96 Se.UPF
CELL_PARAMETERS {angstrom}
        3.7650000000         0.0000000000         0.0000000000
        0.0000000000         3.7650000000         0.0000000000
        0.0000000000         0.0000000000         20.000000000

ATOMIC_POSITIONS (crystal)
Fe     0.500000000         0.500000000         0.073196270
Fe     0.000000000         0.000000000         0.073196270
Se     0.500000000         0.000000000         0.146392540
Se     0.000000000         0.500000000         0.000000000

K_POINTS {crystal}
144
  0.00000000  0.00000000  0.00000000  6.944444e-03 
  0.00000000  0.08333333  0.00000000  6.944444e-03 
  0.00000000  0.16666667  0.00000000  6.944444e-03 
  0.00000000  0.25000000  0.00000000  6.944444e-03 
  0.00000000  0.33333333  0.00000000  6.944444e-03 
  0.00000000  0.41666667  0.00000000  6.944444e-03 
  0.00000000  0.50000000  0.00000000  6.944444e-03 
  0.00000000  0.58333333  0.00000000  6.944444e-03 
  0.00000000  0.66666667  0.00000000  6.944444e-03 
  0.00000000  0.75000000  0.00000000  6.944444e-03 
  0.00000000  0.83333333  0.00000000  6.944444e-03 
  0.00000000  0.91666667  0.00000000  6.944444e-03 
  0.08333333  0.00000000  0.00000000  6.944444e-03 
  0.08333333  0.08333333  0.00000000  6.944444e-03 
  0.08333333  0.16666667  0.00000000  6.944444e-03 
  0.08333333  0.25000000  0.00000000  6.944444e-03 
  0.08333333  0.33333333  0.00000000  6.944444e-03 
  0.08333333  0.41666667  0.00000000  6.944444e-03 
  0.08333333  0.50000000  0.00000000  6.944444e-03 
  0.08333333  0.58333333  0.00000000  6.944444e-03 
  0.08333333  0.66666667  0.00000000  6.944444e-03 
  0.08333333  0.75000000  0.00000000  6.944444e-03 
  0.08333333  0.83333333  0.00000000  6.944444e-03 
  0.08333333  0.91666667  0.00000000  6.944444e-03 
  0.16666667  0.00000000  0.00000000  6.944444e-03 
  0.16666667  0.08333333  0.00000000  6.944444e-03 
  0.16666667  0.16666667  0.00000000  6.944444e-03 
  0.16666667  0.25000000  0.00000000  6.944444e-03 
  0.16666667  0.33333333  0.00000000  6.944444e-03 
  0.16666667  0.41666667  0.00000000  6.944444e-03 
  0.16666667  0.50000000  0.00000000  6.944444e-03 
  0.16666667  0.58333333  0.00000000  6.944444e-03 
  0.16666667  0.66666667  0.00000000  6.944444e-03 
  0.16666667  0.75000000  0.00000000  6.944444e-03 
  0.16666667  0.83333333  0.00000000  6.944444e-03 
  0.16666667  0.91666667  0.00000000  6.944444e-03 
  0.25000000  0.00000000  0.00000000  6.944444e-03 
  0.25000000  0.08333333  0.00000000  6.944444e-03 
  0.25000000  0.16666667  0.00000000  6.944444e-03 
  0.25000000  0.25000000  0.00000000  6.944444e-03 
  0.25000000  0.33333333  0.00000000  6.944444e-03 
  0.25000000  0.41666667  0.00000000  6.944444e-03 
  0.25000000  0.50000000  0.00000000  6.944444e-03 
  0.25000000  0.58333333  0.00000000  6.944444e-03 
  0.25000000  0.66666667  0.00000000  6.944444e-03 
  0.25000000  0.75000000  0.00000000  6.944444e-03 
  0.25000000  0.83333333  0.00000000  6.944444e-03 
  0.25000000  0.91666667  0.00000000  6.944444e-03 
  0.33333333  0.00000000  0.00000000  6.944444e-03 
  0.33333333  0.08333333  0.00000000  6.944444e-03 
  0.33333333  0.16666667  0.00000000  6.944444e-03 
  0.33333333  0.25000000  0.00000000  6.944444e-03 
  0.33333333  0.33333333  0.00000000  6.944444e-03 
  0.33333333  0.41666667  0.00000000  6.944444e-03 
  0.33333333  0.50000000  0.00000000  6.944444e-03 
  0.33333333  0.58333333  0.00000000  6.944444e-03 
  0.33333333  0.66666667  0.00000000  6.944444e-03 
  0.33333333  0.75000000  0.00000000  6.944444e-03 
  0.33333333  0.83333333  0.00000000  6.944444e-03 
  0.33333333  0.91666667  0.00000000  6.944444e-03 
  0.41666667  0.00000000  0.00000000  6.944444e-03 
  0.41666667  0.08333333  0.00000000  6.944444e-03 
  0.41666667  0.16666667  0.00000000  6.944444e-03 
  0.41666667  0.25000000  0.00000000  6.944444e-03 
  0.41666667  0.33333333  0.00000000  6.944444e-03 
  0.41666667  0.41666667  0.00000000  6.944444e-03 
  0.41666667  0.50000000  0.00000000  6.944444e-03 
  0.41666667  0.58333333  0.00000000  6.944444e-03 
  0.41666667  0.66666667  0.00000000  6.944444e-03 
  0.41666667  0.75000000  0.00000000  6.944444e-03 
  0.41666667  0.83333333  0.00000000  6.944444e-03 
  0.41666667  0.91666667  0.00000000  6.944444e-03 
  0.50000000  0.00000000  0.00000000  6.944444e-03 
  0.50000000  0.08333333  0.00000000  6.944444e-03 
  0.50000000  0.16666667  0.00000000  6.944444e-03 
  0.50000000  0.25000000  0.00000000  6.944444e-03 
  0.50000000  0.33333333  0.00000000  6.944444e-03 
  0.50000000  0.41666667  0.00000000  6.944444e-03 
  0.50000000  0.50000000  0.00000000  6.944444e-03 
  0.50000000  0.58333333  0.00000000  6.944444e-03 
  0.50000000  0.66666667  0.00000000  6.944444e-03 
  0.50000000  0.75000000  0.00000000  6.944444e-03 
  0.50000000  0.83333333  0.00000000  6.944444e-03 
  0.50000000  0.91666667  0.00000000  6.944444e-03 
  0.58333333  0.00000000  0.00000000  6.944444e-03 
  0.58333333  0.08333333  0.00000000  6.944444e-03 
  0.58333333  0.16666667  0.00000000  6.944444e-03 
  0.58333333  0.25000000  0.00000000  6.944444e-03 
  0.58333333  0.33333333  0.00000000  6.944444e-03 
  0.58333333  0.41666667  0.00000000  6.944444e-03 
  0.58333333  0.50000000  0.00000000  6.944444e-03 
  0.58333333  0.58333333  0.00000000  6.944444e-03 
  0.58333333  0.66666667  0.00000000  6.944444e-03 
  0.58333333  0.75000000  0.00000000  6.944444e-03 
  0.58333333  0.83333333  0.00000000  6.944444e-03 
  0.58333333  0.91666667  0.00000000  6.944444e-03 
  0.66666667  0.00000000  0.00000000  6.944444e-03 
  0.66666667  0.08333333  0.00000000  6.944444e-03 
  0.66666667  0.16666667  0.00000000  6.944444e-03 
  0.66666667  0.25000000  0.00000000  6.944444e-03 
  0.66666667  0.33333333  0.00000000  6.944444e-03 
  0.66666667  0.41666667  0.00000000  6.944444e-03 
  0.66666667  0.50000000  0.00000000  6.944444e-03 
  0.66666667  0.58333333  0.00000000  6.944444e-03 
  0.66666667  0.66666667  0.00000000  6.944444e-03 
  0.66666667  0.75000000  0.00000000  6.944444e-03 
  0.66666667  0.83333333  0.00000000  6.944444e-03 
  0.66666667  0.91666667  0.00000000  6.944444e-03 
  0.75000000  0.00000000  0.00000000  6.944444e-03 
  0.75000000  0.08333333  0.00000000  6.944444e-03 
  0.75000000  0.16666667  0.00000000  6.944444e-03 
  0.75000000  0.25000000  0.00000000  6.944444e-03 
  0.75000000  0.33333333  0.00000000  6.944444e-03 
  0.75000000  0.41666667  0.00000000  6.944444e-03 
  0.75000000  0.50000000  0.00000000  6.944444e-03 
  0.75000000  0.58333333  0.00000000  6.944444e-03 
  0.75000000  0.66666667  0.00000000  6.944444e-03 
  0.75000000  0.75000000  0.00000000  6.944444e-03 
  0.75000000  0.83333333  0.00000000  6.944444e-03 
  0.75000000  0.91666667  0.00000000  6.944444e-03 
  0.83333333  0.00000000  0.00000000  6.944444e-03 
  0.83333333  0.08333333  0.00000000  6.944444e-03 
  0.83333333  0.16666667  0.00000000  6.944444e-03 
  0.83333333  0.25000000  0.00000000  6.944444e-03 
  0.83333333  0.33333333  0.00000000  6.944444e-03 
  0.83333333  0.41666667  0.00000000  6.944444e-03 
  0.83333333  0.50000000  0.00000000  6.944444e-03 
  0.83333333  0.58333333  0.00000000  6.944444e-03 
  0.83333333  0.66666667  0.00000000  6.944444e-03 
  0.83333333  0.75000000  0.00000000  6.944444e-03 
  0.83333333  0.83333333  0.00000000  6.944444e-03 
  0.83333333  0.91666667  0.00000000  6.944444e-03 
  0.91666667  0.00000000  0.00000000  6.944444e-03 
  0.91666667  0.08333333  0.00000000  6.944444e-03 
  0.91666667  0.16666667  0.00000000  6.944444e-03 
  0.91666667  0.25000000  0.00000000  6.944444e-03 
  0.91666667  0.33333333  0.00000000  6.944444e-03 
  0.91666667  0.41666667  0.00000000  6.944444e-03 
  0.91666667  0.50000000  0.00000000  6.944444e-03 
  0.91666667  0.58333333  0.00000000  6.944444e-03 
  0.91666667  0.66666667  0.00000000  6.944444e-03 
  0.91666667  0.75000000  0.00000000  6.944444e-03 
  0.91666667  0.83333333  0.00000000  6.944444e-03 
  0.91666667  0.91666667  0.00000000  6.944444e-03 

