begin unit_cell_cart
Ang
        3.7650000000         0.0000000000         0.0000000000
        0.0000000000         3.7650000000         0.0000000000
        0.0000000000         0.0000000000         20.000000000
end unit_cell_cart

begin atoms_frac
Fe     0.500000000         0.500000000         0.073196270
Fe     0.000000000         0.000000000         0.073196270
Se     0.500000000         0.000000000         0.146392540
Se     0.000000000         0.500000000         0.000000000
end atoms_frac

! system
num_wann = 10
num_bands = 50
mp_grid 12 12 1

! job control
iprint = 2

! plotting
wannier_plot = false
wannier_plot_supercell = 3
bands_plot = true
bands_num_points = 100
bands_plot_format = gnuplot
write_hr = true
write_u_matrices = true

! disentanglement
dis_froz_min = -4
dis_froz_max = 1
dis_num_iter = 2000
dis_conv_tol = 1.0E-12
guiding_centres=true
! wannierisation
num_iter = 100
conv_window = 10
conv_tol = 1e-12

! pp tools
kpath = true
kpath_task = bands
kpath_bands_colour = spin
kpath_num_points=500
begin kpoint_path
G 0.0 0.0 0.0 X 0.5 0.0 0.0
X 0.5 0.0 0.0 M 0.5 0.5 0.0
M 0.5 0.5 0.0 G 0.0 0.0 0.0
G 0.0 0.0 0.0 Y 0.0 0.5 0.0
end kpoint_path

begin projections
f=0.500000000,0.500000000,0.073196270:dxy
f=0.500000000,0.500000000,0.073196270:dyz
f=0.500000000,0.500000000,0.073196270:dz2
f=0.500000000,0.500000000,0.073196270:dxz
f=0.500000000,0.500000000,0.073196270:dx2-y2
f=0.000000000,0.000000000,0.073196270:dxy
f=0.000000000,0.000000000,0.073196270:dyz
f=0.000000000,0.000000000,0.073196270:dz2
f=0.000000000,0.000000000,0.073196270:dxz
f=0.000000000,0.000000000,0.073196270:dx2-y2
!Fe:dxy,dyz,dz2,dxz,dx2-y2
!Se:l=1:mr=1,2,3
end projections
begin kpoints
  0.00000000  0.00000000  0.00000000  6.944444e-03 
  0.00000000  0.08333333  0.00000000  6.944444e-03 
  0.00000000  0.16666667  0.00000000  6.944444e-03 
  0.00000000  0.25000000  0.00000000  6.944444e-03 
  0.00000000  0.33333333  0.00000000  6.944444e-03 
  0.00000000  0.41666667  0.00000000  6.944444e-03 
  0.00000000  0.50000000  0.00000000  6.944444e-03 
  0.00000000  0.58333333  0.00000000  6.944444e-03 
  0.00000000  0.66666667  0.00000000  6.944444e-03 
  0.00000000  0.75000000  0.00000000  6.944444e-03 
  0.00000000  0.83333333  0.00000000  6.944444e-03 
  0.00000000  0.91666667  0.00000000  6.944444e-03 
  0.08333333  0.00000000  0.00000000  6.944444e-03 
  0.08333333  0.08333333  0.00000000  6.944444e-03 
  0.08333333  0.16666667  0.00000000  6.944444e-03 
  0.08333333  0.25000000  0.00000000  6.944444e-03 
  0.08333333  0.33333333  0.00000000  6.944444e-03 
  0.08333333  0.41666667  0.00000000  6.944444e-03 
  0.08333333  0.50000000  0.00000000  6.944444e-03 
  0.08333333  0.58333333  0.00000000  6.944444e-03 
  0.08333333  0.66666667  0.00000000  6.944444e-03 
  0.08333333  0.75000000  0.00000000  6.944444e-03 
  0.08333333  0.83333333  0.00000000  6.944444e-03 
  0.08333333  0.91666667  0.00000000  6.944444e-03 
  0.16666667  0.00000000  0.00000000  6.944444e-03 
  0.16666667  0.08333333  0.00000000  6.944444e-03 
  0.16666667  0.16666667  0.00000000  6.944444e-03 
  0.16666667  0.25000000  0.00000000  6.944444e-03 
  0.16666667  0.33333333  0.00000000  6.944444e-03 
  0.16666667  0.41666667  0.00000000  6.944444e-03 
  0.16666667  0.50000000  0.00000000  6.944444e-03 
  0.16666667  0.58333333  0.00000000  6.944444e-03 
  0.16666667  0.66666667  0.00000000  6.944444e-03 
  0.16666667  0.75000000  0.00000000  6.944444e-03 
  0.16666667  0.83333333  0.00000000  6.944444e-03 
  0.16666667  0.91666667  0.00000000  6.944444e-03 
  0.25000000  0.00000000  0.00000000  6.944444e-03 
  0.25000000  0.08333333  0.00000000  6.944444e-03 
  0.25000000  0.16666667  0.00000000  6.944444e-03 
  0.25000000  0.25000000  0.00000000  6.944444e-03 
  0.25000000  0.33333333  0.00000000  6.944444e-03 
  0.25000000  0.41666667  0.00000000  6.944444e-03 
  0.25000000  0.50000000  0.00000000  6.944444e-03 
  0.25000000  0.58333333  0.00000000  6.944444e-03 
  0.25000000  0.66666667  0.00000000  6.944444e-03 
  0.25000000  0.75000000  0.00000000  6.944444e-03 
  0.25000000  0.83333333  0.00000000  6.944444e-03 
  0.25000000  0.91666667  0.00000000  6.944444e-03 
  0.33333333  0.00000000  0.00000000  6.944444e-03 
  0.33333333  0.08333333  0.00000000  6.944444e-03 
  0.33333333  0.16666667  0.00000000  6.944444e-03 
  0.33333333  0.25000000  0.00000000  6.944444e-03 
  0.33333333  0.33333333  0.00000000  6.944444e-03 
  0.33333333  0.41666667  0.00000000  6.944444e-03 
  0.33333333  0.50000000  0.00000000  6.944444e-03 
  0.33333333  0.58333333  0.00000000  6.944444e-03 
  0.33333333  0.66666667  0.00000000  6.944444e-03 
  0.33333333  0.75000000  0.00000000  6.944444e-03 
  0.33333333  0.83333333  0.00000000  6.944444e-03 
  0.33333333  0.91666667  0.00000000  6.944444e-03 
  0.41666667  0.00000000  0.00000000  6.944444e-03 
  0.41666667  0.08333333  0.00000000  6.944444e-03 
  0.41666667  0.16666667  0.00000000  6.944444e-03 
  0.41666667  0.25000000  0.00000000  6.944444e-03 
  0.41666667  0.33333333  0.00000000  6.944444e-03 
  0.41666667  0.41666667  0.00000000  6.944444e-03 
  0.41666667  0.50000000  0.00000000  6.944444e-03 
  0.41666667  0.58333333  0.00000000  6.944444e-03 
  0.41666667  0.66666667  0.00000000  6.944444e-03 
  0.41666667  0.75000000  0.00000000  6.944444e-03 
  0.41666667  0.83333333  0.00000000  6.944444e-03 
  0.41666667  0.91666667  0.00000000  6.944444e-03 
  0.50000000  0.00000000  0.00000000  6.944444e-03 
  0.50000000  0.08333333  0.00000000  6.944444e-03 
  0.50000000  0.16666667  0.00000000  6.944444e-03 
  0.50000000  0.25000000  0.00000000  6.944444e-03 
  0.50000000  0.33333333  0.00000000  6.944444e-03 
  0.50000000  0.41666667  0.00000000  6.944444e-03 
  0.50000000  0.50000000  0.00000000  6.944444e-03 
  0.50000000  0.58333333  0.00000000  6.944444e-03 
  0.50000000  0.66666667  0.00000000  6.944444e-03 
  0.50000000  0.75000000  0.00000000  6.944444e-03 
  0.50000000  0.83333333  0.00000000  6.944444e-03 
  0.50000000  0.91666667  0.00000000  6.944444e-03 
  0.58333333  0.00000000  0.00000000  6.944444e-03 
  0.58333333  0.08333333  0.00000000  6.944444e-03 
  0.58333333  0.16666667  0.00000000  6.944444e-03 
  0.58333333  0.25000000  0.00000000  6.944444e-03 
  0.58333333  0.33333333  0.00000000  6.944444e-03 
  0.58333333  0.41666667  0.00000000  6.944444e-03 
  0.58333333  0.50000000  0.00000000  6.944444e-03 
  0.58333333  0.58333333  0.00000000  6.944444e-03 
  0.58333333  0.66666667  0.00000000  6.944444e-03 
  0.58333333  0.75000000  0.00000000  6.944444e-03 
  0.58333333  0.83333333  0.00000000  6.944444e-03 
  0.58333333  0.91666667  0.00000000  6.944444e-03 
  0.66666667  0.00000000  0.00000000  6.944444e-03 
  0.66666667  0.08333333  0.00000000  6.944444e-03 
  0.66666667  0.16666667  0.00000000  6.944444e-03 
  0.66666667  0.25000000  0.00000000  6.944444e-03 
  0.66666667  0.33333333  0.00000000  6.944444e-03 
  0.66666667  0.41666667  0.00000000  6.944444e-03 
  0.66666667  0.50000000  0.00000000  6.944444e-03 
  0.66666667  0.58333333  0.00000000  6.944444e-03 
  0.66666667  0.66666667  0.00000000  6.944444e-03 
  0.66666667  0.75000000  0.00000000  6.944444e-03 
  0.66666667  0.83333333  0.00000000  6.944444e-03 
  0.66666667  0.91666667  0.00000000  6.944444e-03 
  0.75000000  0.00000000  0.00000000  6.944444e-03 
  0.75000000  0.08333333  0.00000000  6.944444e-03 
  0.75000000  0.16666667  0.00000000  6.944444e-03 
  0.75000000  0.25000000  0.00000000  6.944444e-03 
  0.75000000  0.33333333  0.00000000  6.944444e-03 
  0.75000000  0.41666667  0.00000000  6.944444e-03 
  0.75000000  0.50000000  0.00000000  6.944444e-03 
  0.75000000  0.58333333  0.00000000  6.944444e-03 
  0.75000000  0.66666667  0.00000000  6.944444e-03 
  0.75000000  0.75000000  0.00000000  6.944444e-03 
  0.75000000  0.83333333  0.00000000  6.944444e-03 
  0.75000000  0.91666667  0.00000000  6.944444e-03 
  0.83333333  0.00000000  0.00000000  6.944444e-03 
  0.83333333  0.08333333  0.00000000  6.944444e-03 
  0.83333333  0.16666667  0.00000000  6.944444e-03 
  0.83333333  0.25000000  0.00000000  6.944444e-03 
  0.83333333  0.33333333  0.00000000  6.944444e-03 
  0.83333333  0.41666667  0.00000000  6.944444e-03 
  0.83333333  0.50000000  0.00000000  6.944444e-03 
  0.83333333  0.58333333  0.00000000  6.944444e-03 
  0.83333333  0.66666667  0.00000000  6.944444e-03 
  0.83333333  0.75000000  0.00000000  6.944444e-03 
  0.83333333  0.83333333  0.00000000  6.944444e-03 
  0.83333333  0.91666667  0.00000000  6.944444e-03 
  0.91666667  0.00000000  0.00000000  6.944444e-03 
  0.91666667  0.08333333  0.00000000  6.944444e-03 
  0.91666667  0.16666667  0.00000000  6.944444e-03 
  0.91666667  0.25000000  0.00000000  6.944444e-03 
  0.91666667  0.33333333  0.00000000  6.944444e-03 
  0.91666667  0.41666667  0.00000000  6.944444e-03 
  0.91666667  0.50000000  0.00000000  6.944444e-03 
  0.91666667  0.58333333  0.00000000  6.944444e-03 
  0.91666667  0.66666667  0.00000000  6.944444e-03 
  0.91666667  0.75000000  0.00000000  6.944444e-03 
  0.91666667  0.83333333  0.00000000  6.944444e-03 
  0.91666667  0.91666667  0.00000000  6.944444e-03 
end kpoints
